
Gurobi 11.0.3 (linux64) logging started Sun Jun  1 08:27:58 2025

Set parameter LogFile to value "/home/yihong/Coding/SFLA+ED/PD_results_bigM100000_thread4/case24_ieee_rts_theta0.21_epsilon0.06_gurobi_seed80000_num_gen13_N_WDR80_load_scaling_factor1_CVAR_T28.txt"
Set parameter TimeLimit to value 3600
Gurobi Optimizer version 11.0.3 build v11.0.3rc0 (linux64 - "Ubuntu 20.04.6 LTS")

CPU model: AMD EPYC 7532 32-Core Processor, instruction set [SSE2|AVX|AVX2]
Thread count: 64 physical cores, 128 logical processors, using up to 4 threads

Optimize a model with 286384 rows, 809 columns and 10064656 nonzeros
Model fingerprint: 0x902467df
Model has 364 quadratic objective terms
Coefficient statistics:
  Matrix range     [7e-05, 8e+01]
  Objective range  [2e+01, 6e+01]
  QObjective range [4e-03, 2e-02]
  Bounds range     [0e+00, 0e+00]
  RHS range        [3e-02, 9e+02]
Presolve removed 100271 rows and 0 columns
Presolve time: 2.13s
Presolved: 186113 rows, 809 columns, 3953337 nonzeros
Presolved model has 364 quadratic objective terms
Ordering time: 0.47s

Barrier statistics:
 Dense cols : 809
 Free vars  : 364
 AA' NZ     : 3.953e+06
 Factor NZ  : 5.527e+06 (roughly 120 MB of memory)
 Factor Ops : 2.313e+08 (less than 1 second per iteration)
 Threads    : 4

                  Objective                Residual
Iter       Primal          Dual         Primal    Dual     Compl     Time
   0   2.44414432e+08 -1.34553143e+08  1.30e+04 9.94e+02  9.78e+05     3s
   1   1.03981658e+08 -4.35568718e+08  7.21e+03 7.34e+02  5.51e+05     3s
   2   7.92366810e+07 -1.09533367e+10  5.90e+03 6.17e+02  6.29e+05     4s
   3   4.23984918e+06 -8.21134469e+09  3.89e+02 1.94e+02  7.67e+04     4s
   4   2.66024175e+06 -5.25838357e+09  2.14e+02 1.05e+02  4.44e+04     4s
   5   1.45504385e+06 -2.83243471e+09  7.89e+01 3.80e+01  2.11e+04     4s
   6   9.52203214e+05 -1.65233421e+09  2.17e+01 1.08e+01  1.02e+04     4s
   7   7.62073681e+05 -5.55264103e+07  9.79e-03 3.00e-01  3.01e+02     4s
   8   7.61070567e+05 -9.39078593e+05  2.95e-04 9.10e-03  9.10e+00     4s
   9   7.44274840e+05  1.34120056e+05  8.68e-05 2.67e-03  3.27e+00     4s
  10   7.29079587e+05  3.18589111e+05  4.93e-05 1.52e-03  2.20e+00     4s
  11   7.22219757e+05  4.03988117e+05  3.80e-05 1.17e-03  1.70e+00     5s
  12   7.09542111e+05  4.52351114e+05  2.54e-05 7.88e-04  1.38e+00     5s
  13   6.98858935e+05  5.07958142e+05  1.87e-05 5.88e-04  1.02e+00     5s
  14   6.87622928e+05  5.24284014e+05  1.45e-05 4.48e-04  8.74e-01     5s
  15   6.79087806e+05  5.34580156e+05  1.16e-05 3.57e-04  7.73e-01     5s
  16   6.64914010e+05  5.63333976e+05  6.98e-06 2.14e-04  5.44e-01     5s
  17   6.59258719e+05  5.71611608e+05  5.39e-06 1.65e-04  4.69e-01     5s
  18   6.57241742e+05  5.75119968e+05  4.85e-06 1.48e-04  4.40e-01     6s
  19   6.50388911e+05  5.89772960e+05  3.12e-06 9.51e-05  3.24e-01     6s
  20   6.47530219e+05  5.97720014e+05  2.17e-06 6.62e-05  2.67e-01     6s
  21   6.46687603e+05  6.02319201e+05  1.78e-06 5.44e-05  2.37e-01     6s
  22   6.44322362e+05  6.16658237e+05  9.39e-07 2.87e-05  1.48e-01     6s
  23   6.43193271e+05  6.24042561e+05  4.85e-07 1.48e-05  1.02e-01     6s
  24   6.42039342e+05  6.31256785e+05  1.56e-07 4.74e-06  5.77e-02     7s
  25   6.41322893e+05  6.36177336e+05  1.77e-08 9.43e-07  2.75e-02     7s
  26   6.41136395e+05  6.37643886e+05  8.51e-09 4.52e-07  1.87e-02     7s
  27   6.40897929e+05  6.39496761e+05  1.38e-09 7.24e-08  7.50e-03     7s
  28   6.40787558e+05  6.40328709e+05  1.25e-10 7.76e-09  2.46e-03     7s
  29   6.40740207e+05  6.40681884e+05  9.07e-12 1.23e-09  3.12e-04     8s
  30   6.40733585e+05  6.40731616e+05  1.99e-13 9.78e-10  1.05e-05     8s
  31   6.40733351e+05  6.40733344e+05  2.84e-14 6.78e-10  3.52e-08     8s
  32   6.40733350e+05  6.40733350e+05  2.84e-14 1.37e-09  3.56e-11     8s

Barrier solved model in 32 iterations and 7.89 seconds (10.30 work units)
Optimal objective 6.40733350e+05

